5	6	7	8	9	10	11	12	13	14	15	16	17	18	19	20	21	22	23	24
	0	0	4	0	4	4	4	4	4	0	0	0	0	3	2	2	1	5	0
	6	8	12	8	12	10	10	10	10	4	4	4	4	7	8	8	9	15
	12	16	20	16	20	16	16	16	16	8	8	8	8	11	14	14	14	30
	20	24	28	24	28	22	22	22	22	12	12	12	12	15	20	20	21	45
	28	32	36	32	34	28	28	28	28	16	16	16	16	19	26	26	26
	36	40	44	40	40	34	34	34	34	20	20	20	20	23	32	32	33
	44	48	52	48	46	40	40	40	40	24	24	24	24	26	38	38	41
	52	56		56	52	46	46	46	46	28	28	28	28	32	44	46	49
					58	52	52	52	52	32	32	32	32	38	50	53	57
						58	58	58	57	36	36	36	38	44	56
										40	40	40	44	50
										44	44	44	50	56
										48	48	48	56
										52	52	52
										56	56	56